p cnf 32 24
c p distribution  0.875 0.125
c p distribution  0.875 0.125
c p distribution  0.875 0.125
c p distribution  0.875 0.125
c p distribution  0.875 0.125
c p distribution  0.875 0.125
c p distribution  0.875 0.125
c p distribution  0.875 0.125
c p distribution  0.875 0.125
c p distribution  0.875 0.125
c p distribution  0.875 0.125
26 0
-27 0
32 -27 -1 0
27 -32 -1 0
25 -29 -3 0
29 -25 -3 0
32 -31 -5 0
31 -32 -5 0
32 -27 -7 0
27 -32 -7 0
28 -23 -9 0
23 -28 -9 0
24 -23 -11 0
23 -24 -11 0
30 -32 -13 0
32 -30 -13 0
25 -26 -15 0
26 -25 -15 0
30 -23 -17 0
23 -30 -17 0
32 -27 -19 0
27 -32 -19 0
29 -28 -21 0
28 -29 -21 0

